9 92 18 83 59 49 23 95 38 28 39 16 30 3 70 14 33 99 63 74 71 41 13 27 75 55 68 32 2 10 93 44 4 17 22 53 26 20 24 80 50 62 69 73 6 48 81 7 43 66 51 60 84 76 65 61 52 46 37 25 5 88 57 42 97 67 72 12 96 1 94 45 77 54 15 21 19 40 56 89 8 11 91 78 47 85 58 79 90 36 87 64 35 98 86 31 34 29 82 0 

